50
1000
698
697
692
689
685
684
684
678
622
611
605
595
591
585
552
535
527
521
510
507
503
487
482
472
469
450
449
445
445
445
438
422
413
381
377
362
362
343
332
318
313
259
254
244
242
241
218
217
213
208
